200
400
320
319
313
312
311
311
306
299
299
297
294
294
294
293
292
291
285
284
283
282
280
280
278
277
277
276
275
275
275
271
271
269
269
266
266
264
263
256
256
256
254
249
248
247
246
245
243
242
242
240
239
239
238
237
236
234
231
229
229
228
227
226
225
224
219
219
219
218
213
213
212
212
212
209
209
209
208
208
206
204
203
202
201
200
200
199
198
196
193
192
190
190
190
188
188
187
187
184
184
182
176
175
174
173
173
172
171
169
168
167
166
164
163
159
159
159
158
157
155
153
147
147
145
145
142
141
138
135
135
134
133
129
129
129
127
125
122
118
114
114
112
112
112
110
109
109
108
108
105
105
104
103
102
102
101
96
95
94
92
88
88
86
86
85
85
85
84
84
79
75
75
72
72
70
68
67
67
67
64
63
61
59
59
58
58
53
52
50
50
50
49
47
47
47
45
43
43
42
41
41
